
Gurobi 13.0.2 (win64) logging started Thu Jul 23 04:57:10 2026

Set parameter LogFile to value "E:\codes\ExactEBRP\results\gf_cplex_equivalent_gurobi_replica_round28\runs\stage1__moderate_seed4301__c3_replica__300s\external\native_logs\R.0.0.1.1.1.0.0.1_terminal_mip.gurobi.log"
Gurobi Optimizer version 13.0.2 build v13.0.2rc1 (win64 - Windows 10.0 (19045.2))

CPU model: 12th Gen Intel(R) Core(TM) i7-12700KF, instruction set [SSE2|AVX|AVX2]
Thread count: 12 physical cores, 20 logical processors, using up to 1 threads

Non-default parameters:
TimeLimit  1.4717284669999998e+02
MIPGap  0
MIPGapAbs  0
LogToConsole  0
Threads  1

Optimize a model with 11911 rows, 3376 columns and 67353 nonzeros (Min)
Model fingerprint: 0x50b97ab8
Model has 21 linear objective coefficients
Variable types: 1685 continuous, 1691 integer (1491 binary)
Coefficient statistics:
  Matrix range     [4e-03, 2e+04]
  Objective range  [8e-03, 1e+00]
  Bounds range     [4e-03, 5e+01]
  RHS range        [4e-03, 5e+04]

Presolve removed 4336 rows and 447 columns
Presolve time: 0.35s
Presolved: 7575 rows, 2929 columns, 52077 nonzeros
Variable types: 1475 continuous, 1454 integer (1319 binary)

Root relaxation: objective 6.257444e-03, 2038 iterations, 0.07 seconds (0.17 work units)

    Nodes    |    Current Node    |     Objective Bounds      |     Work
 Expl Unexpl |  Obj  Depth IntInf | Incumbent    BestBd   Gap | It/Node Time

     0     0    0.00626    0  177          -    0.00626      -     -    0s
     0     0    0.00626    0  172          -    0.00626      -     -    0s
     0     0    0.00632    0  209          -    0.00632      -     -    1s
     0     0    0.00632    0  188          -    0.00632      -     -    1s
     0     0    0.00636    0  207          -    0.00636      -     -    1s
     0     0    0.00636    0  202          -    0.00636      -     -    1s
     0     0    0.00636    0  228          -    0.00636      -     -    1s
     0     0    0.00637    0  197          -    0.00637      -     -    1s
     0     0    0.00637    0  216          -    0.00637      -     -    2s
     0     0    0.00637    0  200          -    0.00637      -     -    2s
     0     0    0.00637    0  226          -    0.00637      -     -    2s
     0     0    0.00637    0  240          -    0.00637      -     -    2s
     0     0    0.00637    0  233          -    0.00637      -     -    3s
     0     0    0.00637    0  233          -    0.00637      -     -    3s
     0     0    0.00637    0  222          -    0.00637      -     -    3s
     0     0    0.00637    0  277          -    0.00637      -     -    3s
     0     0    0.00637    0  277          -    0.00637      -     -    3s
     0     0    0.00637    0  194          -    0.00637      -     -    4s
     0     0    0.00637    0  229          -    0.00637      -     -    4s
     0     0    0.00637    0  206          -    0.00637      -     -    4s
     0     0    0.00637    0  163          -    0.00637      -     -    4s
     0     0    0.00637    0  217          -    0.00637      -     -    5s
     0     0    0.00637    0  192          -    0.00637      -     -    5s
     0     0    0.00637    0  162          -    0.00637      -     -    5s
     0     0    0.00637    0  162          -    0.00637      -     -    5s
     0     0    0.00637    0  162          -    0.00637      -     -    5s
     0     2    0.00637    0  162          -    0.00637      -     -    6s
    42    20    0.00646    7  175          -    0.00637      -   681   10s
   136    20    0.00647    4  216          -    0.00646      -   575   15s
   220     6 infeasible   12               -    0.00648      -   520   20s

Cutting planes:
  Learned: 28
  Gomory: 1
  Cover: 95
  Implied bound: 427
  Clique: 36
  MIR: 288
  StrongCG: 32
  Flow cover: 101
  GUB cover: 1
  Zero half: 4
  Network: 21
  RLT: 28
  Relax-and-lift: 178
  BQP: 11

Explored 237 nodes (164306 simplex iterations) in 20.56 seconds (42.95 work units)
Thread count was 1 (of 20 available processors)

Solution count 0

Model is infeasible
Best objective -, best bound -, gap -

User-callback calls 5237, time in user-callback 0.00 sec
